certificates/rado_a15_c108_N39.cnf
c Rad2 upper bound instance: x1 + 15*x2 - x3 = 108, interval [1,39]
p cnf 39 204
1 8 13 0
-1 -8 -13 0
1 9 28 0
-1 -9 -28 0
2 8 14 0
-2 -8 -14 0
2 9 29 0
-2 -9 -29 0
3 8 15 0
-3 -8 -15 0
3 9 30 0
-3 -9 -30 0
1 4 7 0
-1 -4 -7 0
4 8 16 0
-4 -8 -16 0
4 9 31 0
-4 -9 -31 0
2 5 7 0
-2 -5 -7 0
5 8 17 0
-5 -8 -17 0
5 9 32 0
-5 -9 -32 0
3 6 7 0
-3 -6 -7 0
6 8 18 0
-6 -8 -18 0
6 9 33 0
-6 -9 -33 0
4 7 0
-4 -7 0
7 8 19 0
-7 -8 -19 0
7 9 34 0
-7 -9 -34 0
5 7 8 0
-5 -7 -8 0
8 20 0
-8 -20 0
8 9 35 0
-8 -9 -35 0
6 7 9 0
-6 -7 -9 0
8 9 21 0
-8 -9 -21 0
9 36 0
-9 -36 0
7 10 0
-7 -10 0
8 10 22 0
-8 -10 -22 0
9 10 37 0
-9 -10 -37 0
7 8 11 0
-7 -8 -11 0
8 11 23 0
-8 -11 -23 0
9 11 38 0
-9 -11 -38 0
7 9 12 0
-7 -9 -12 0
8 12 24 0
-8 -12 -24 0
9 12 39 0
-9 -12 -39 0
7 10 13 0
-7 -10 -13 0
8 13 25 0
-8 -13 -25 0
7 11 14 0
-7 -11 -14 0
8 14 26 0
-8 -14 -26 0
7 12 15 0
-7 -12 -15 0
8 15 27 0
-8 -15 -27 0
7 13 16 0
-7 -13 -16 0
8 16 28 0
-8 -16 -28 0
7 14 17 0
-7 -14 -17 0
8 17 29 0
-8 -17 -29 0
7 15 18 0
-7 -15 -18 0
8 18 30 0
-8 -18 -30 0
1 6 19 0
-1 -6 -19 0
7 16 19 0
-7 -16 -19 0
8 19 31 0
-8 -19 -31 0
2 6 20 0
-2 -6 -20 0
7 17 20 0
-7 -17 -20 0
8 20 32 0
-8 -20 -32 0
3 6 21 0
-3 -6 -21 0
7 18 21 0
-7 -18 -21 0
8 21 33 0
-8 -21 -33 0
4 6 22 0
-4 -6 -22 0
7 19 22 0
-7 -19 -22 0
8 22 34 0
-8 -22 -34 0
5 6 23 0
-5 -6 -23 0
7 20 23 0
-7 -20 -23 0
8 23 35 0
-8 -23 -35 0
6 24 0
-6 -24 0
7 21 24 0
-7 -21 -24 0
8 24 36 0
-8 -24 -36 0
6 7 25 0
-6 -7 -25 0
7 22 25 0
-7 -22 -25 0
8 25 37 0
-8 -25 -37 0
6 8 26 0
-6 -8 -26 0
7 23 26 0
-7 -23 -26 0
8 26 38 0
-8 -26 -38 0
6 9 27 0
-6 -9 -27 0
7 24 27 0
-7 -24 -27 0
8 27 39 0
-8 -27 -39 0
6 10 28 0
-6 -10 -28 0
7 25 28 0
-7 -25 -28 0
6 11 29 0
-6 -11 -29 0
7 26 29 0
-7 -26 -29 0
6 12 30 0
-6 -12 -30 0
7 27 30 0
-7 -27 -30 0
6 13 31 0
-6 -13 -31 0
7 28 31 0
-7 -28 -31 0
6 14 32 0
-6 -14 -32 0
7 29 32 0
-7 -29 -32 0
6 15 33 0
-6 -15 -33 0
7 30 33 0
-7 -30 -33 0
1 5 34 0
-1 -5 -34 0
6 16 34 0
-6 -16 -34 0
7 31 34 0
-7 -31 -34 0
2 5 35 0
-2 -5 -35 0
6 17 35 0
-6 -17 -35 0
7 32 35 0
-7 -32 -35 0
3 5 36 0
-3 -5 -36 0
6 18 36 0
-6 -18 -36 0
7 33 36 0
-7 -33 -36 0
4 5 37 0
-4 -5 -37 0
6 19 37 0
-6 -19 -37 0
7 34 37 0
-7 -34 -37 0
5 38 0
-5 -38 0
6 20 38 0
-6 -20 -38 0
7 35 38 0
-7 -35 -38 0
5 6 39 0
-5 -6 -39 0
6 21 39 0
-6 -21 -39 0
7 36 39 0
-7 -36 -39 0
