certificates/rado_a15_c108_N39.drat
-36 -37 5 -39 0
-37 5 -39 0
d -36 -37 5 -39 0
-38 -39 0
7 -39 0
-39 0
-9 -7 0
-7 0
4 0
10 0
36 0
-9 0
34 0
12 0
6 0
-22 0
-24 0
-28 0
-30 0
-16 0
-18 0
25 0
19 0
27 0
21 0
31 0
1 0
33 0
3 0
8 0
13 0
15 0
0
